p cnf 1857 849
-1580 1711 0
-1711 1580 0
-1713 -1714 0
-1582 1713 0
-1583 1714 0
-1713 1582 0
-1714 1583 0
-1716 -1717 0
-1585 1716 0
-1586 1717 0
-1716 1585 0
-1717 1586 0
-1719 -1720 0
-1719 -1721 0
-1720 -1721 0
-1588 1719 0
-1589 1720 0
-1590 1721 0
-1719 1588 0
-1720 1589 0
-1721 1590 0
-1723 -1724 0
-1592 1723 0
-1593 1724 0
-1723 1592 0
-1724 1593 0
-1726 -1727 0
-1726 -1728 0
-1727 -1728 0
-1595 1726 0
-1596 1727 0
-1597 1728 0
-1726 1595 0
-1727 1596 0
-1728 1597 0
-1730 -1731 0
-1599 1730 0
-1600 1731 0
-1730 1599 0
-1731 1600 0
-1733 -1734 0
-1733 -1735 0
-1734 -1735 0
-1602 1733 0
-1603 1734 0
-1604 1735 0
-1733 1602 0
-1734 1603 0
-1735 1604 0
-1737 -1738 0
-1606 1737 0
-1607 1738 0
-1737 1606 0
-1738 1607 0
-1740 -1741 0
-1740 -1742 0
-1741 -1742 0
-1609 1740 0
-1610 1741 0
-1611 1742 0
-1740 1609 0
-1741 1610 0
-1742 1611 0
-1744 -1745 0
-1613 1744 0
-1614 1745 0
-1744 1613 0
-1745 1614 0
-1747 -1748 0
-1747 -1749 0
-1748 -1749 0
-1616 1747 0
-1617 1748 0
-1618 1749 0
-1747 1616 0
-1748 1617 0
-1749 1618 0
-1751 -1752 0
-1620 1751 0
-1621 1752 0
-1751 1620 0
-1752 1621 0
-1754 -1755 0
-1754 -1756 0
-1755 -1756 0
-1623 1756 0
-1624 1755 0
-1625 1754 0
-1626 1756 0
-1754 1625 0
-1755 1624 0
-1756 1623 1626 0
-1759 1764 1765 1766 1767 1768 0
-1764 -1765 0
-1764 -1766 0
-1764 -1767 0
-1764 -1768 0
-1765 -1766 0
-1765 -1767 0
-1765 -1768 0
-1766 -1767 0
-1766 -1768 0
-1767 -1768 0
-1759 1769 1770 1771 1772 1773 1774 1775 0
-1769 -1770 0
-1769 -1771 0
-1769 -1772 0
-1769 -1773 0
-1769 -1774 0
-1769 -1775 0
-1770 -1771 0
-1770 -1772 0
-1770 -1773 0
-1770 -1774 0
-1770 -1775 0
-1771 -1772 0
-1771 -1773 0
-1771 -1774 0
-1771 -1775 0
-1772 -1773 0
-1772 -1774 0
-1772 -1775 0
-1773 -1774 0
-1773 -1775 0
-1774 -1775 0
-1759 1776 1777 1778 1779 1780 1781 1782 1783 0
-1776 -1777 0
-1776 -1778 0
-1776 -1779 0
-1776 -1780 0
-1776 -1781 0
-1776 -1782 0
-1776 -1783 0
-1777 -1778 0
-1777 -1779 0
-1777 -1780 0
-1777 -1781 0
-1777 -1782 0
-1777 -1783 0
-1778 -1779 0
-1778 -1780 0
-1778 -1781 0
-1778 -1782 0
-1778 -1783 0
-1779 -1780 0
-1779 -1781 0
-1779 -1782 0
-1779 -1783 0
-1780 -1781 0
-1780 -1782 0
-1780 -1783 0
-1781 -1782 0
-1781 -1783 0
-1782 -1783 0
-1759 1763 0
-1759 1762 0
-1759 1761 0
-1758 -1759 0
-1767 -1769 -1761 1671 0
-1767 -1774 -1761 1678 0
-1767 -1770 -1761 1658 0
-1765 -1773 -1761 1659 0
-1767 -1775 -1761 1660 0
-1764 -1770 -1761 1661 0
-1766 -1770 -1761 1674 0
-1768 -1773 -1761 1690 0
-1766 -1775 -1761 1663 0
-1767 -1772 -1761 1665 0
-1766 -1773 -1761 1683 0
-1764 -1773 -1761 1675 0
-1768 -1774 -1761 1666 0
-1768 -1770 -1761 1691 0
-1764 -1774 -1761 1692 0
-1767 -1771 -1761 1684 0
-1765 -1770 -1761 1685 0
-1768 -1769 -1761 1668 0
-1768 -1771 -1761 1686 0
-1765 -1775 -1761 1677 0
-1768 -1775 -1761 1670 0
-1767 -1773 -1761 1688 0
-1764 -1775 -1761 1694 0
-1765 -1771 -1761 1695 0
-1764 -1771 -1761 1696 0
-1776 -1762 1682 0
-1781 -1762 1667 0
-1777 -1762 1693 0
-1782 -1762 1669 0
-1780 -1762 1673 0
-1779 -1762 1689 0
-1778 -1762 1680 0
-1783 -1762 1664 0
-1764 -1763 1547 0
-1767 -1763 1520 0
-1766 -1763 1514 0
-1765 -1763 1538 0
-1768 -1763 1522 0
-1759 -1768 -1782 0
-1759 -1768 -1779 0
-1759 -1764 -1782 0
-1759 -1764 -1776 0
-1759 -1764 -1779 0
-1759 -1766 -1781 0
-1759 -1766 -1782 0
-1759 -1766 -1778 0
-1759 -1766 -1776 0
-1759 -1766 -1779 0
-1759 -1765 -1781 0
-1759 -1765 -1782 0
-1759 -1765 -1776 0
-1759 -1765 -1779 0
-1759 -1767 -1782 0
-1759 -1768 -1772 0
-1759 -1764 -1772 0
-1759 -1764 -1769 0
-1759 -1766 -1772 0
-1759 -1766 -1774 0
-1759 -1766 -1771 0
-1759 -1766 -1769 0
-1759 -1765 -1772 0
-1759 -1765 -1774 0
-1759 -1765 -1769 0
-1654 1759 0
-1653 1758 0
-1758 1653 0
-1759 1654 0
-1784 1788 0
-1787 1788 0
-1785 -1788 0
-1786 -1788 0
-1658 1789 -1759 -1767 1770 0
-1658 1789 -1759 1767 0
-1658 1789 1759 0
1658 -1789 -1759 -1767 1777 0
1658 -1789 -1759 1767 0
1658 -1789 1759 0
-1659 1790 -1759 -1765 1773 0
-1659 1790 -1759 1765 0
-1659 1790 1759 0
1659 -1790 -1759 -1765 1780 0
1659 -1790 -1759 1765 0
1659 -1790 1759 0
-1514 1791 -1759 1766 0
-1514 1791 1759 0
1514 -1791 -1759 1771 0
1514 -1791 1759 0
-1660 1792 -1759 -1767 1775 0
-1660 1792 -1759 1767 0
-1660 1792 1759 0
1660 -1792 -1759 -1767 1783 0
1660 -1792 -1759 1767 0
1660 -1792 1759 0
-1661 1793 -1759 -1764 1770 0
-1661 1793 -1759 1764 0
-1661 1793 1759 0
1661 -1793 -1759 -1764 1777 0
1661 -1793 -1759 1764 0
1661 -1793 1759 0
-1663 1794 -1759 -1766 1775 0
-1663 1794 -1759 1766 0
-1663 1794 1759 0
1663 -1794 -1759 -1766 1783 0
1663 -1794 -1759 1766 0
1663 -1794 1759 0
-1664 1795 -1759 1783 0
-1664 1795 1759 0
1664 -1795 0
-1665 1796 -1759 -1767 1772 0
-1665 1796 -1759 1767 0
-1665 1796 1759 0
1665 -1796 -1759 -1767 1779 0
1665 -1796 -1759 1767 0
1665 -1796 1759 0
-1520 1797 -1759 1767 0
-1520 1797 1759 0
1520 -1797 0
-1666 1798 -1759 -1768 1774 0
-1666 1798 -1759 1768 0
-1666 1798 1759 0
1666 -1798 -1759 -1768 1781 0
1666 -1798 -1759 1768 0
1666 -1798 1759 0
-1667 1799 -1759 1781 0
-1667 1799 1759 0
1667 -1799 -1759 1765 0
1667 -1799 1759 0
-1522 1800 -1759 1768 0
-1522 1800 1759 0
1522 -1800 -1759 1772 0
1522 -1800 1759 0
-1668 1801 -1759 -1768 1769 0
-1668 1801 -1759 1768 0
-1668 1801 1759 0
1668 -1801 -1759 -1768 1776 0
1668 -1801 -1759 1768 0
1668 -1801 1759 0
-1669 1802 -1759 1782 0
-1669 1802 1759 0
1669 -1802 -1759 1767 0
1669 -1802 1759 0
-1670 1803 -1759 -1768 1775 0
-1670 1803 -1759 1768 0
-1670 1803 1759 0
1670 -1803 -1759 -1768 1783 0
1670 -1803 -1759 1768 0
1670 -1803 1759 0
-1671 1804 -1759 -1767 1769 0
-1671 1804 -1759 1767 0
-1671 1804 1759 0
1671 -1804 -1759 -1767 1776 0
1671 -1804 -1759 1767 0
1671 -1804 1759 0
-1526 1805 0
1526 -1805 -1759 1770 0
1526 -1805 1759 0
-1673 1806 -1759 1780 0
-1673 1806 1759 0
1673 -1806 0
-1674 1807 -1759 -1766 1770 0
-1674 1807 -1759 1766 0
-1674 1807 1759 0
1674 -1807 -1759 -1766 1777 0
1674 -1807 -1759 1766 0
1674 -1807 1759 0
-1675 1808 -1759 -1764 1773 0
-1675 1808 -1759 1764 0
-1675 1808 1759 0
1675 -1808 -1759 -1764 1780 0
1675 -1808 -1759 1764 0
1675 -1808 1759 0
-1531 1809 0
1531 -1809 -1759 1773 0
1531 -1809 1759 0
-1677 1810 -1759 -1765 1775 0
-1677 1810 -1759 1765 0
-1677 1810 1759 0
1677 -1810 -1759 -1765 1783 0
1677 -1810 -1759 1765 0
1677 -1810 1759 0
-1678 1811 -1759 -1767 1774 0
-1678 1811 -1759 1767 0
-1678 1811 1759 0
1678 -1811 -1759 -1767 1781 0
1678 -1811 -1759 1767 0
1678 -1811 1759 0
-1534 1812 0
1534 -1812 -1759 1775 0
1534 -1812 1759 0
-1680 1813 -1759 1778 0
-1680 1813 1759 0
1680 -1813 -1759 1766 0
1680 -1813 1759 0
-1682 1814 -1759 1776 0
-1682 1814 1759 0
1682 -1814 -1759 1764 0
1682 -1814 1759 0
-1683 1815 -1759 -1766 1773 0
-1683 1815 -1759 1766 0
-1683 1815 1759 0
1683 -1815 -1759 -1766 1780 0
1683 -1815 -1759 1766 0
1683 -1815 1759 0
-1538 1816 -1759 1765 0
-1538 1816 1759 0
1538 -1816 -1759 1774 0
1538 -1816 1759 0
-1684 1817 -1759 -1767 1771 0
-1684 1817 -1759 1767 0
-1684 1817 1759 0
1684 -1817 -1759 -1767 1778 0
1684 -1817 -1759 1767 0
1684 -1817 1759 0
-1685 1818 -1759 -1765 1770 0
-1685 1818 -1759 1765 0
-1685 1818 1759 0
1685 -1818 -1759 -1765 1777 0
1685 -1818 -1759 1765 0
1685 -1818 1759 0
-1686 1819 -1759 -1768 1771 0
-1686 1819 -1759 1768 0
-1686 1819 1759 0
1686 -1819 -1759 -1768 1778 0
1686 -1819 -1759 1768 0
1686 -1819 1759 0
-1688 1820 -1759 -1767 1773 0
-1688 1820 -1759 1767 0
-1688 1820 1759 0
1688 -1820 -1759 -1767 1780 0
1688 -1820 -1759 1767 0
1688 -1820 1759 0
-1689 1821 -1759 1779 0
-1689 1821 1759 0
1689 -1821 -1759 1768 0
1689 -1821 1759 0
-1690 1822 -1759 -1768 1773 0
-1690 1822 -1759 1768 0
-1690 1822 1759 0
1690 -1822 -1759 -1768 1780 0
1690 -1822 -1759 1768 0
1690 -1822 1759 0
-1691 1823 -1759 -1768 1770 0
-1691 1823 -1759 1768 0
-1691 1823 1759 0
1691 -1823 -1759 -1768 1777 0
1691 -1823 -1759 1768 0
1691 -1823 1759 0
-1692 1824 -1759 -1764 1774 0
-1692 1824 -1759 1764 0
-1692 1824 1759 0
1692 -1824 -1759 -1764 1781 0
1692 -1824 -1759 1764 0
1692 -1824 1759 0
-1693 1825 -1759 1777 0
-1693 1825 1759 0
1693 -1825 0
-1547 1826 -1759 1764 0
-1547 1826 1759 0
1547 -1826 -1759 1769 0
1547 -1826 1759 0
-1694 1827 -1759 -1764 1775 0
-1694 1827 -1759 1764 0
-1694 1827 1759 0
1694 -1827 -1759 -1764 1783 0
1694 -1827 -1759 1764 0
1694 -1827 1759 0
-1695 1828 -1759 -1765 1771 0
-1695 1828 -1759 1765 0
-1695 1828 1759 0
1695 -1828 -1759 -1765 1778 0
1695 -1828 -1759 1765 0
1695 -1828 1759 0
-1696 1829 -1759 -1764 1771 0
-1696 1829 -1759 1764 0
-1696 1829 1759 0
1696 -1829 -1759 -1764 1778 0
1696 -1829 -1759 1764 0
1696 -1829 1759 0
-1785 1840 1841 1842 1843 1844 1845 1846 1847 0
-1840 -1841 0
-1840 -1842 0
-1840 -1843 0
-1840 -1844 0
-1840 -1845 0
-1840 -1846 0
-1840 -1847 0
-1841 -1842 0
-1841 -1843 0
-1841 -1844 0
-1841 -1845 0
-1841 -1846 0
-1841 -1847 0
-1842 -1843 0
-1842 -1844 0
-1842 -1845 0
-1842 -1846 0
-1842 -1847 0
-1843 -1844 0
-1843 -1845 0
-1843 -1846 0
-1843 -1847 0
-1844 -1845 0
-1844 -1846 0
-1844 -1847 0
-1845 -1846 0
-1845 -1847 0
-1846 -1847 0
-1785 1848 1849 1850 1851 1852 0
-1848 -1849 0
-1848 -1850 0
-1848 -1851 0
-1848 -1852 0
-1849 -1850 0
-1849 -1851 0
-1849 -1852 0
-1850 -1851 0
-1850 -1852 0
-1851 -1852 0
-1785 1838 0
-1785 1830 0
-1786 1848 1849 1850 1851 1852 0
-1848 -1849 0
-1848 -1850 0
-1848 -1851 0
-1848 -1852 0
-1849 -1850 0
-1849 -1851 0
-1849 -1852 0
-1850 -1851 0
-1850 -1852 0
-1851 -1852 0
-1786 1840 1841 1842 1843 1844 1845 1846 1847 0
-1840 -1841 0
-1840 -1842 0
-1840 -1843 0
-1840 -1844 0
-1840 -1845 0
-1840 -1846 0
-1840 -1847 0
-1841 -1842 0
-1841 -1843 0
-1841 -1844 0
-1841 -1845 0
-1841 -1846 0
-1841 -1847 0
-1842 -1843 0
-1842 -1844 0
-1842 -1845 0
-1842 -1846 0
-1842 -1847 0
-1843 -1844 0
-1843 -1845 0
-1843 -1846 0
-1843 -1847 0
-1844 -1845 0
-1844 -1846 0
-1844 -1847 0
-1845 -1846 0
-1845 -1847 0
-1846 -1847 0
-1786 1833 0
-1786 1839 0
-1787 1662 0
-1787 1805 0
-1784 -1785 0
-1784 -1786 0
-1784 -1787 0
-1785 -1786 0
-1785 -1787 0
-1786 -1787 0
-1848 -1830 1679 0
-1852 -1830 1656 0
-1849 -1830 1657 0
-1850 -1830 1672 0
-1851 -1830 1687 0
-1770 -1831 1805 0
-1775 -1831 1812 0
-1771 -1831 1791 0
-1774 -1831 1816 0
-1772 -1831 1800 0
-1773 -1831 1809 0
-1769 -1831 1826 0
-1764 1832 -1826 0
-1767 1832 -1797 0
-1766 1832 -1791 0
-1765 1832 -1816 0
-1768 1832 -1800 0
-1844 -1833 1681 0
-1843 -1833 1656 0
-1845 -1833 1657 0
-1841 -1833 1676 0
-1840 -1833 1679 0
-1842 -1833 1672 0
-1846 -1833 1687 0
-1847 -1833 1662 0
-1767 -1776 -1834 1804 0
-1767 -1781 -1834 1811 0
-1767 -1777 -1834 1789 0
-1765 -1780 -1834 1790 0
-1767 -1783 -1834 1792 0
-1764 -1777 -1834 1793 0
-1766 -1777 -1834 1807 0
-1768 -1780 -1834 1822 0
-1766 -1783 -1834 1794 0
-1767 -1779 -1834 1796 0
-1766 -1780 -1834 1815 0
-1764 -1780 -1834 1808 0
-1768 -1781 -1834 1798 0
-1768 -1777 -1834 1823 0
-1764 -1781 -1834 1824 0
-1767 -1778 -1834 1817 0
-1765 -1777 -1834 1818 0
-1768 -1776 -1834 1801 0
-1768 -1778 -1834 1819 0
-1765 -1783 -1834 1810 0
-1768 -1783 -1834 1803 0
-1767 -1780 -1834 1820 0
-1764 -1783 -1834 1827 0
-1765 -1778 -1834 1828 0
-1764 -1778 -1834 1829 0
-1764 -1835 1814 0
-1767 -1835 1802 0
-1765 -1835 1799 0
-1768 -1835 1821 0
-1766 -1835 1813 0
-1767 -1769 1836 -1804 0
-1767 -1774 1836 -1811 0
-1767 -1770 1836 -1789 0
-1765 -1773 1836 -1790 0
-1767 -1775 1836 -1792 0
-1764 -1770 1836 -1793 0
-1766 -1770 1836 -1807 0
-1768 -1773 1836 -1822 0
-1766 -1775 1836 -1794 0
-1767 -1772 1836 -1796 0
-1766 -1773 1836 -1815 0
-1764 -1773 1836 -1808 0
-1768 -1774 1836 -1798 0
-1768 -1770 1836 -1823 0
-1764 -1774 1836 -1824 0
-1767 -1771 1836 -1817 0
-1765 -1770 1836 -1818 0
-1768 -1769 1836 -1801 0
-1768 -1771 1836 -1819 0
-1765 -1775 1836 -1810 0
-1768 -1775 1836 -1803 0
-1767 -1773 1836 -1820 0
-1764 -1775 1836 -1827 0
-1765 -1771 1836 -1828 0
-1764 -1771 1836 -1829 0
-1776 1837 -1814 0
-1781 1837 -1799 0
-1777 1837 -1825 0
-1782 1837 -1802 0
-1780 1837 -1806 0
-1779 1837 -1821 0
-1778 1837 -1813 0
-1783 1837 -1795 0
-1841 -1838 1805 0
-1846 -1838 1797 0
-1847 -1838 1812 0
-1842 -1838 1791 0
-1845 -1838 1816 0
-1843 -1838 1800 0
-1844 -1838 1809 0
-1840 -1838 1826 0
-1848 -1839 1826 0
-1851 -1839 1797 0
-1850 -1839 1791 0
-1849 -1839 1816 0
-1852 -1839 1800 0
-1853 1776 -1769 0
-1853 -1776 1769 0
-1853 1777 -1770 0
-1853 -1777 1770 0
-1853 1778 -1771 0
-1853 -1778 1771 0
-1853 1779 -1772 0
-1853 -1779 1772 0
-1853 1780 -1773 0
-1853 -1780 1773 0
-1853 1781 -1774 0
-1853 -1781 1774 0
-1853 1783 -1775 0
-1853 -1783 1775 0
-1776 -1769 1853 0
-1777 -1770 1853 0
-1778 -1771 1853 0
-1779 -1772 1853 0
-1780 -1773 1853 0
-1781 -1774 1853 0
-1783 -1775 1853 0
-1782 -1853 0
-1854 1776 -1764 0
-1854 -1776 1764 0
-1854 1781 -1765 0
-1854 -1781 1765 0
-1854 1778 -1766 0
-1854 -1778 1766 0
-1854 1782 -1767 0
-1854 -1782 1767 0
-1854 1779 -1768 0
-1854 -1779 1768 0
-1776 -1764 1854 0
-1781 -1765 1854 0
-1778 -1766 1854 0
-1782 -1767 1854 0
-1779 -1768 1854 0
-1780 -1854 0
-1777 -1854 0
-1783 -1854 0
-1759 -1837 1854 0
-1759 1831 0
-1759 1835 0
-1855 1764 -1769 0
-1855 -1764 1769 0
-1855 1765 -1774 0
-1855 -1765 1774 0
-1855 1766 -1771 0
-1855 -1766 1771 0
-1855 1768 -1772 0
-1855 -1768 1772 0
-1764 -1769 1855 0
-1765 -1774 1855 0
-1766 -1771 1855 0
-1768 -1772 1855 0
-1767 -1855 0
-1773 -1855 0
-1770 -1855 0
-1775 -1855 0
-1759 -1832 1855 0
-1759 1834 0
-1856 1769 -1776 0
-1856 -1769 1776 0
-1856 1770 -1777 0
-1856 -1770 1777 0
-1856 1771 -1778 0
-1856 -1771 1778 0
-1856 1772 -1779 0
-1856 -1772 1779 0
-1856 1773 -1780 0
-1856 -1773 1780 0
-1856 1774 -1781 0
-1856 -1774 1781 0
-1856 1775 -1783 0
-1856 -1775 1783 0
-1769 -1776 1856 0
-1770 -1777 1856 0
-1771 -1778 1856 0
-1772 -1779 1856 0
-1773 -1780 1856 0
-1774 -1781 1856 0
-1775 -1783 1856 0
-1782 -1856 0
-1759 -1836 1856 0
-1785 -1852 -1843 0
-1785 -1852 -1846 0
-1785 -1848 -1843 0
-1785 -1848 -1846 0
-1785 -1848 -1840 0
-1785 -1851 -1846 0
-1785 -1850 -1843 0
-1785 -1850 -1842 0
-1785 -1850 -1845 0
-1785 -1850 -1846 0
-1785 -1850 -1840 0
-1785 -1849 -1843 0
-1785 -1849 -1845 0
-1785 -1849 -1846 0
-1785 -1849 -1840 0
-1786 -1852 -1843 0
-1786 -1852 -1846 0
-1786 -1848 -1843 0
-1786 -1848 -1846 0
-1786 -1848 -1840 0
-1786 -1851 -1846 0
-1786 -1850 -1843 0
-1786 -1850 -1842 0
-1786 -1850 -1845 0
-1786 -1850 -1846 0
-1786 -1850 -1840 0
-1786 -1849 -1843 0
-1786 -1849 -1845 0
-1786 -1849 -1846 0
-1786 -1849 -1840 0
-1654 1785 1786 1787 0
-1653 1784 0
-1785 1654 0
-1786 1654 0
-1787 1654 0
-1784 1653 0
-1656 151 -1788 0
1656 -151 -1788 0
-1657 152 -1788 0
1657 -152 -1788 0
-1789 154 -1788 0
1789 -154 -1788 0
-1790 155 -1788 0
1790 -155 -1788 0
-1791 385 -1788 0
1791 -385 -1788 0
-1792 156 -1788 0
1792 -156 -1788 0
-1793 158 -1788 0
1793 -158 -1788 0
-1662 159 -1788 0
1662 -159 -1788 0
-1794 160 -1788 0
1794 -160 -1788 0
-1795 602 -1788 0
1795 -602 -1788 0
-1796 10 -1788 0
1796 -10 -1788 0
-1797 162 -1788 0
1797 -162 -1788 0
-1798 163 -1788 0
1798 -163 -1788 0
-1799 270 -1788 0
1799 -270 -1788 0
-1800 386 -1788 0
1800 -386 -1788 0
-1801 11 -1788 0
1801 -11 -1788 0
-1802 271 -1788 0
1802 -271 -1788 0
-1803 167 -1788 0
1803 -167 -1788 0
-1804 170 -1788 0
1804 -170 -1788 0
-1805 171 -1788 0
1805 -171 -1788 0
-1672 172 -1788 0
1672 -172 -1788 0
-1806 273 -1788 0
1806 -273 -1788 0
-1807 12 -1788 0
1807 -12 -1788 0
-1808 174 -1788 0
1808 -174 -1788 0
-1676 274 -1788 0
1676 -274 -1788 0
-1809 387 -1788 0
1809 -387 -1788 0
-1810 176 -1788 0
1810 -176 -1788 0
-1811 153 -1788 0
1811 -153 -1788 0
-1812 388 -1788 0
1812 -388 -1788 0
-1679 157 -1788 0
1679 -157 -1788 0
-1813 267 -1788 0
1813 -267 -1788 0
-1681 268 -1788 0
1681 -268 -1788 0
-1814 269 -1788 0
1814 -269 -1788 0
-1815 161 -1788 0
1815 -161 -1788 0
-1816 389 -1788 0
1816 -389 -1788 0
-1817 164 -1788 0
1817 -164 -1788 0
-1818 165 -1788 0
1818 -165 -1788 0
-1819 166 -1788 0
1819 -166 -1788 0
-1687 168 -1788 0
1687 -168 -1788 0
-1820 169 -1788 0
1820 -169 -1788 0
-1821 272 -1788 0
1821 -272 -1788 0
-1822 173 -1788 0
1822 -173 -1788 0
-1823 175 -1788 0
1823 -175 -1788 0
-1824 13 -1788 0
1824 -13 -1788 0
-1825 603 -1788 0
1825 -603 -1788 0
-1826 390 -1788 0
1826 -390 -1788 0
-1827 177 -1788 0
1827 -177 -1788 0
-1828 14 -1788 0
1828 -14 -1788 0
-1829 178 -1788 0
1829 -178 -1788 0
-1709 1857 0
-1857 1709 0
a 1788 0
